\ENCODING=ISO-8859-1
\Problem name: ilog.cplex

Maximize
 obj: 1069 x(0)#0 + 684 x(1)#1 + 810 x(2)#2 + 1067 x(3)#3 + 416 x(4)#4
      + 500 x(5)#5 + 647 x(6)#6 + 957 x(7)#7 + 498 x(8)#8 + 361 x(9)#9
      + 933 x(10)#10 + 726 x(11)#11 + 785 x(12)#12 + 833 x(13)#13
      + 404 x(14)#14 + 676 x(15)#15 + 949 x(16)#16 + 917 x(17)#17
      + 762 x(18)#18 + 559 x(19)#19 + 578 x(20)#20 + 659 x(21)#21
      + 921 x(22)#22 + 591 x(23)#23 + 785 x(24)#24 + 328 x(25)#25
      + 727 x(26)#26 + 921 x(27)#27 + 774 x(28)#28 + 782 x(29)#29
      + 1012 x(30)#30 + 993 x(31)#31 + 860 x(32)#32 + 800 x(33)#33
      + 912 x(34)#34 + 1136 x(35)#35 + 1021 x(36)#36 + 918 x(37)#37
      + 503 x(38)#38 + 698 x(39)#39 + 571 x(40)#40 + 630 x(41)#41
      + 1102 x(42)#42 + 671 x(43)#43 + 588 x(44)#44 + 704 x(45)#45
      + 1067 x(46)#46 + 771 x(47)#47 + 772 x(48)#48 + 736 x(49)#49
      + 815 x(50)#50 + 840 x(51)#51 + 887 x(52)#52 + 576 x(53)#53
      + 531 x(54)#54 + 815 x(55)#55 + 727 x(56)#56 + 751 x(57)#57
      + 736 x(58)#58 + 614 x(59)#59 + 522 x(60)#60 + 1035 x(61)#61
      + 840 x(62)#62 + 1029 x(63)#63 + 774 x(64)#64 + 486 x(65)#65
      + 1101 x(66)#66 + 673 x(67)#67 + 748 x(68)#68 + 839 x(69)#69
      + 681 x(70)#70 + 483 x(71)#71 + 890 x(72)#72 + 540 x(73)#73
      + 540 x(74)#74 + 688 x(75)#75 + 538 x(76)#76 + 867 x(77)#77
      + 627 x(78)#78 + 1007 x(79)#79 + 638 x(80)#80 + 406 x(81)#81
      + 608 x(82)#82 + 965 x(83)#83 + 931 x(84)#84 + 557 x(85)#85
      + 869 x(86)#86 + 658 x(87)#87 + 900 x(88)#88 + 642 x(89)#89
      + 1053 x(90)#90 + 977 x(91)#91 + 406 x(92)#92 + 940 x(93)#93
      + 697 x(94)#94 + 335 x(95)#95 + 783 x(96)#96 + 895 x(97)#97
      + 813 x(98)#98 + 523 x(99)#99 + 736 x(100)#100 + 1084 x(101)#101
      + 362 x(102)#102 + 956 x(103)#103 + 942 x(104)#104 + 869 x(105)#105
      + 505 x(106)#106 + 452 x(107)#107 + 874 x(108)#108 + 864 x(109)#109
      + 466 x(110)#110 + 846 x(111)#111 + 1027 x(112)#112 + 1170 x(113)#113
      + 680 x(114)#114 + 761 x(115)#115 + 738 x(116)#116 + 1073 x(117)#117
      + 1123 x(118)#118 + 858 x(119)#119 + 1076 x(120)#120 + 1087 x(121)#121
      + 816 x(122)#122 + 448 x(123)#123 + 892 x(124)#124 + 674 x(125)#125
      + 689 x(126)#126 + 592 x(127)#127 + 558 x(128)#128 + 622 x(129)#129
      + 942 x(130)#130 + 766 x(131)#131 + 734 x(132)#132 + 441 x(133)#133
      + 703 x(134)#134 + 737 x(135)#135 + 524 x(136)#136 + 389 x(137)#137
      + 1022 x(138)#138 + 851 x(139)#139 + 655 x(140)#140 + 869 x(141)#141
      + 709 x(142)#142 + 292 x(143)#143 + 845 x(144)#144 + 572 x(145)#145
      + 881 x(146)#146 + 970 x(147)#147 + 513 x(148)#148 + 894 x(149)#149
      + 937 x(150)#150 + 906 x(151)#151 + 649 x(152)#152 + 919 x(153)#153
      + 647 x(154)#154 + 862 x(155)#155 + 474 x(156)#156 + 1055 x(157)#157
      + 380 x(158)#158 + 923 x(159)#159 + 787 x(160)#160 + 800 x(161)#161
      + 731 x(162)#162 + 718 x(163)#163 + 580 x(164)#164 + 916 x(165)#165
      + 1030 x(166)#166 + 914 x(167)#167 + 704 x(168)#168 + 369 x(169)#169
      + 741 x(170)#170 + 749 x(171)#171 + 562 x(172)#172 + 651 x(173)#173
      + 495 x(174)#174 + 595 x(175)#175 + 489 x(176)#176 + 1003 x(177)#177
      + 960 x(178)#178 + 661 x(179)#179 + 605 x(180)#180 + 808 x(181)#181
      + 896 x(182)#182 + 587 x(183)#183 + 1104 x(184)#184 + 843 x(185)#185
      + 919 x(186)#186 + 1096 x(187)#187 + 557 x(188)#188 + 759 x(189)#189
      + 322 x(190)#190 + 1082 x(191)#191 + 498 x(192)#192 + 707 x(193)#193
      + 922 x(194)#194 + 859 x(195)#195 + 642 x(196)#196 + 1095 x(197)#197
      + 900 x(198)#198 + 494 x(199)#199 + 733 x(200)#200 + 865 x(201)#201
      + 564 x(202)#202 + 813 x(203)#203 + 832 x(204)#204 + 799 x(205)#205
      + 1171 x(206)#206 + 520 x(207)#207 + 847 x(208)#208 + 563 x(209)#209
      + 887 x(210)#210 + 581 x(211)#211 + 683 x(212)#212 + 940 x(213)#213
      + 537 x(214)#214 + 862 x(215)#215 + 705 x(216)#216 + 862 x(217)#217
      + 608 x(218)#218 + 638 x(219)#219 + 960 x(220)#220 + 918 x(221)#221
      + 835 x(222)#222 + 904 x(223)#223 + 723 x(224)#224 + 869 x(225)#225
      + 688 x(226)#226 + 907 x(227)#227 + 593 x(228)#228 + 925 x(229)#229
      + 930 x(230)#230 + 1016 x(231)#231 + 989 x(232)#232 + 608 x(233)#233
      + 687 x(234)#234 + 745 x(235)#235 + 683 x(236)#236 + 345 x(237)#237
      + 879 x(238)#238 + 1113 x(239)#239 + 691 x(240)#240 + 731 x(241)#241
      + 786 x(242)#242 + 793 x(243)#243 + 623 x(244)#244 + 743 x(245)#245
      + 745 x(246)#246 + 914 x(247)#247 + 850 x(248)#248 + 888 x(249)#249
Subject To
 c1: 942 x(0)#0 + 349 x(1)#1 + 751 x(2)#2 + 860 x(3)#3 + 224 x(4)#4
     + 484 x(5)#5 + 92 x(6)#6 + 687 x(7)#7 + 271 x(8)#8 + 214 x(9)#9
     + 617 x(10)#10 + 219 x(11)#11 + 249 x(12)#12 + 719 x(13)#13 + 589 x(14)#14
     + 651 x(15)#15 + 440 x(16)#16 + 27 x(17)#17 + 119 x(18)#18 + 502 x(19)#19
     + 639 x(20)#20 + 909 x(21)#21 + 480 x(22)#22 + 76 x(23)#23 + 150 x(24)#24
     + 399 x(25)#25 + 211 x(26)#26 + 713 x(27)#27 + 885 x(28)#28 + 380 x(29)#29
     + 330 x(30)#30 + 559 x(31)#31 + 114 x(32)#32 + 511 x(33)#33 + 256 x(34)#34
     + 990 x(35)#35 + 555 x(36)#36 + 26 x(37)#37 + 216 x(38)#38 + 115 x(39)#39
     + 178 x(40)#40 + 277 x(41)#41 + 735 x(42)#42 + 753 x(43)#43 + 27 x(44)#44
     + 269 x(45)#45 + 828 x(46)#46 + 273 x(47)#47 + 903 x(48)#48 + 872 x(49)#49
     + 500 x(50)#50 + 851 x(51)#51 + 822 x(52)#52 + 458 x(53)#53 + 85 x(54)#54
     + 330 x(55)#55 + 798 x(56)#56 + 465 x(57)#57 + 56 x(58)#58 + 825 x(59)#59
     + 606 x(60)#60 + 409 x(61)#61 + 645 x(62)#62 + 800 x(63)#63 + 249 x(64)#64
     + 95 x(65)#65 + 854 x(66)#66 + 700 x(67)#67 + 867 x(68)#68 + 605 x(69)#69
     + 188 x(70)#70 + 385 x(71)#71 + 485 x(72)#72 + 674 x(73)#73 + 849 x(74)#74
     + 144 x(75)#75 + 424 x(76)#76 + 318 x(77)#77 + 34 x(78)#78 + 241 x(79)#79
     + 619 x(80)#80 + 208 x(81)#81 + 434 x(82)#82 + 447 x(83)#83 + 213 x(84)#84
     + 313 x(85)#85 + 614 x(86)#86 + 679 x(87)#87 + 962 x(88)#88 + 77 x(89)#89
     + 45 x(90)#90 + 486 x(91)#91 + 141 x(92)#92 + 380 x(93)#93 + 220 x(94)#94
     + 77 x(95)#95 + 561 x(96)#96 + 125 x(97)#97 + 362 x(98)#98 + 205 x(99)#99
     + 304 x(100)#100 + 781 x(101)#101 + 344 x(102)#102 + 90 x(103)#103
     + 560 x(104)#104 + 986 x(105)#105 + 495 x(106)#106 + 698 x(107)#107
     + 24 x(108)#108 + 587 x(109)#109 + 86 x(110)#110 + 834 x(111)#111
     + 918 x(112)#112 + 915 x(113)#113 + 218 x(114)#114 + 956 x(115)#115
     + 414 x(116)#116 + 465 x(117)#117 + 460 x(118)#118 + 506 x(119)#119
     + 202 x(120)#120 + 521 x(121)#121 + 345 x(122)#122 + 298 x(123)#123
     + 844 x(124)#124 + 600 x(125)#125 + 605 x(126)#126 + 383 x(127)#127
     + 188 x(128)#128 + 106 x(129)#129 + 628 x(130)#130 + 923 x(131)#131
     + 82 x(132)#132 + 747 x(133)#133 + 206 x(134)#134 + 102 x(135)#135
     + 459 x(136)#136 + 511 x(137)#137 + 704 x(138)#138 + 613 x(139)#139
     + 483 x(140)#140 + 731 x(141)#141 + 746 x(142)#142 + 147 x(143)#143
     + 279 x(144)#144 + 192 x(145)#145 + 716 x(146)#146 + 705 x(147)#147
     + 792 x(148)#148 + 75 x(149)#149 + 967 x(150)#150 + 405 x(151)#151
     + 302 x(152)#152 + 637 x(153)#153 + 621 x(154)#154 + 987 x(155)#155
     + 138 x(156)#156 + 307 x(157)#157 + 768 x(158)#158 + 846 x(159)#159
     + 257 x(160)#160 + 397 x(161)#161 + 228 x(162)#162 + 21 x(163)#163
     + 25 x(164)#164 + 630 x(165)#165 + 636 x(166)#166 + 501 x(167)#167
     + 926 x(168)#168 + 633 x(169)#169 + 77 x(170)#170 + 147 x(171)#171
     + 762 x(172)#172 + 342 x(173)#173 + 116 x(174)#174 + 486 x(175)#175
     + 406 x(176)#176 + 487 x(177)#177 + 752 x(178)#178 + 310 x(179)#179
     + 555 x(180)#180 + 238 x(181)#181 + 822 x(182)#182 + 943 x(183)#183
     + 734 x(184)#184 + 586 x(185)#185 + 569 x(186)#186 + 874 x(187)#187
     + 55 x(188)#188 + 909 x(189)#189 + 23 x(190)#190 + 642 x(191)#191
     + 48 x(192)#192 + 838 x(193)#193 + x(194)#194 + 98 x(195)#195
     + 726 x(196)#196 + 727 x(197)#197 + 914 x(198)#198 + 343 x(199)#199
     + 393 x(200)#200 + 751 x(201)#201 + 405 x(202)#202 + 682 x(203)#203
     + 892 x(204)#204 + 877 x(205)#205 + 716 x(206)#206 + 593 x(207)#207
     + 995 x(208)#208 + 337 x(209)#209 + 413 x(210)#210 + 746 x(211)#211
     + 215 x(212)#212 + 682 x(213)#213 + 363 x(214)#214 + 895 x(215)#215
     + 659 x(216)#216 + 543 x(217)#217 + 148 x(218)#218 + 640 x(219)#219
     + 163 x(220)#220 + 214 x(221)#221 + 328 x(222)#222 + 923 x(223)#223
     + 602 x(224)#224 + 358 x(225)#225 + 589 x(226)#226 + 812 x(227)#227
     + 616 x(228)#228 + 734 x(229)#229 + 434 x(230)#230 + 660 x(231)#231
     + 285 x(232)#232 + 817 x(233)#233 + 513 x(234)#234 + 427 x(235)#235
     + 977 x(236)#236 + 496 x(237)#237 + 716 x(238)#238 + 726 x(239)#239
     + 591 x(240)#240 + 293 x(241)#241 + 588 x(242)#242 + 655 x(243)#243
     + 892 x(244)#244 + 304 x(245)#245 + 35 x(246)#246 + 550 x(247)#247
     + 691 x(248)#248 + 700 x(249)#249 <= 91901
 c2: 47 x(0)#0 + 555 x(1)#1 + 335 x(2)#2 + 967 x(3)#3 + 755 x(4)#4 + 513 x(5)#5
     + 805 x(6)#6 + 133 x(7)#7 + 53 x(8)#8 + 177 x(9)#9 + 967 x(10)#10
     + 745 x(11)#11 + 698 x(12)#12 + 460 x(13)#13 + 177 x(14)#14 + 568 x(15)#15
     + 489 x(16)#16 + 718 x(17)#17 + 729 x(18)#18 + 757 x(19)#19 + 626 x(20)#20
     + 347 x(21)#21 + 496 x(22)#22 + 692 x(23)#23 + 124 x(24)#24 + 195 x(25)#25
     + 243 x(26)#26 + 704 x(27)#27 + 937 x(28)#28 + 405 x(29)#29 + 904 x(30)#30
     + 106 x(31)#31 + 754 x(32)#32 + 252 x(33)#33 + 817 x(34)#34 + 776 x(35)#35
     + 794 x(36)#36 + 516 x(37)#37 + 843 x(38)#38 + 890 x(39)#39 + 796 x(40)#40
     + 571 x(41)#41 + 355 x(42)#42 + 562 x(43)#43 + 395 x(44)#44 + 727 x(45)#45
     + 565 x(46)#46 + 523 x(47)#47 + 685 x(48)#48 + 715 x(49)#49 + 860 x(50)#50
     + 391 x(51)#51 + 606 x(52)#52 + 666 x(53)#53 + 472 x(54)#54 + 885 x(55)#55
     + 671 x(56)#56 + 423 x(57)#57 + 995 x(58)#58 + 344 x(59)#59 + 43 x(60)#60
     + 930 x(61)#61 + 290 x(62)#62 + 753 x(63)#63 + 949 x(64)#64 + 955 x(65)#65
     + 627 x(66)#66 + 488 x(67)#67 + 275 x(68)#68 + 244 x(69)#69 + 515 x(70)#70
     + 445 x(71)#71 + 712 x(72)#72 + 728 x(73)#73 + 661 x(74)#74 + 617 x(75)#75
     + 556 x(76)#76 + 421 x(77)#77 + 473 x(78)#78 + 523 x(79)#79 + 180 x(80)#80
     + 243 x(81)#81 + 458 x(82)#82 + 523 x(83)#83 + 466 x(84)#84 + 865 x(85)#85
     + 662 x(86)#86 + 80 x(87)#87 + 834 x(88)#88 + 988 x(89)#89 + 716 x(90)#90
     + 395 x(91)#91 + 210 x(92)#92 + 574 x(93)#93 + 295 x(94)#94 + 24 x(95)#95
     + 879 x(96)#96 + 480 x(97)#97 + 852 x(98)#98 + 815 x(99)#99
     + 215 x(100)#100 + 984 x(101)#101 + 381 x(102)#102 + 559 x(103)#103
     + 890 x(104)#104 + 441 x(105)#105 + 371 x(106)#106 + 277 x(107)#107
     + 863 x(108)#108 + 478 x(109)#109 + 774 x(110)#110 + 887 x(111)#111
     + 855 x(112)#112 + 876 x(113)#113 + 684 x(114)#114 + 219 x(115)#115
     + 124 x(116)#116 + 569 x(117)#117 + 970 x(118)#118 + 966 x(119)#119
     + 256 x(120)#120 + 896 x(121)#121 + 510 x(122)#122 + 886 x(123)#123
     + 709 x(124)#124 + 762 x(125)#125 + 56 x(126)#126 + 15 x(127)#127
     + 289 x(128)#128 + 539 x(129)#129 + 956 x(130)#130 + 870 x(131)#131
     + 973 x(132)#132 + 2 x(133)#133 + 385 x(134)#134 + 615 x(135)#135
     + 521 x(136)#136 + 166 x(137)#137 + 743 x(138)#138 + 542 x(139)#139
     + 873 x(140)#140 + 577 x(141)#141 + 634 x(142)#142 + 23 x(143)#143
     + 550 x(144)#144 + 390 x(145)#145 + 465 x(146)#146 + 711 x(147)#147
     + 149 x(148)#148 + 682 x(149)#149 + 453 x(150)#150 + 783 x(151)#151
     + 839 x(152)#152 + 748 x(153)#153 + 857 x(154)#154 + 324 x(155)#155
     + 390 x(156)#156 + 660 x(157)#157 + 166 x(158)#158 + 375 x(159)#159
     + 418 x(160)#160 + 132 x(161)#161 + 172 x(162)#162 + 236 x(163)#163
     + 790 x(164)#164 + 537 x(165)#165 + 464 x(166)#166 + 245 x(167)#167
     + 222 x(168)#168 + 416 x(169)#169 + 176 x(170)#170 + 349 x(171)#171
     + 261 x(172)#172 + 840 x(173)#173 + 71 x(174)#174 + 356 x(175)#175
     + 904 x(176)#176 + 851 x(177)#177 + 337 x(178)#178 + 862 x(179)#179
     + 220 x(180)#180 + 548 x(181)#181 + 389 x(182)#182 + 322 x(183)#183
     + 752 x(184)#184 + 736 x(185)#185 + 774 x(186)#186 + 842 x(187)#187
     + 515 x(188)#188 + 877 x(189)#189 + 672 x(190)#190 + 839 x(191)#191
     + 771 x(192)#192 + 691 x(193)#193 + 802 x(194)#194 + 594 x(195)#195
     + 322 x(196)#196 + 804 x(197)#197 + 472 x(198)#198 + 635 x(199)#199
     + 409 x(200)#200 + 829 x(201)#201 + 70 x(202)#202 + 570 x(203)#203
     + 881 x(204)#204 + 897 x(205)#205 + 860 x(206)#206 + 862 x(207)#207
     + 54 x(208)#208 + 450 x(209)#209 + 676 x(210)#210 + 704 x(211)#211
     + 435 x(212)#212 + 255 x(213)#213 + 212 x(214)#214 + 391 x(215)#215
     + 891 x(216)#216 + 412 x(217)#217 + 811 x(218)#218 + 746 x(219)#219
     + 460 x(220)#220 + 301 x(221)#221 + 542 x(222)#222 + 392 x(223)#223
     + 348 x(224)#224 + 400 x(225)#225 + 224 x(226)#226 + 95 x(227)#227
     + 569 x(228)#228 + 997 x(229)#229 + 723 x(230)#230 + 982 x(231)#231
     + 530 x(232)#232 + 638 x(233)#233 + 665 x(234)#234 + 707 x(235)#235
     + 166 x(236)#236 + 358 x(237)#237 + 465 x(238)#238 + 300 x(239)#239
     + 864 x(240)#240 + 739 x(241)#241 + 626 x(242)#242 + 974 x(243)#243
     + 231 x(244)#244 + 99 x(245)#245 + 113 x(246)#246 + 887 x(247)#247
     + 184 x(248)#248 + 456 x(249)#249 <= 103057
 c3: 666 x(0)#0 + 508 x(1)#1 + 786 x(2)#2 + 724 x(3)#3 + 200 x(4)#4 + 33 x(5)#5
     + 413 x(6)#6 + 875 x(7)#7 + 189 x(8)#8 + 524 x(9)#9 + 178 x(10)#10
     + 282 x(11)#11 + 216 x(12)#12 + 576 x(13)#13 + 224 x(14)#14 + 899 x(15)#15
     + 810 x(16)#16 + 666 x(17)#17 + 732 x(18)#18 + 269 x(19)#19 + 502 x(20)#20
     + 214 x(21)#21 + 997 x(22)#22 + 326 x(23)#23 + 708 x(24)#24 + 271 x(25)#25
     + 467 x(26)#26 + 120 x(27)#27 + 436 x(28)#28 + 185 x(29)#29 + 54 x(30)#30
     + 372 x(31)#31 + 803 x(32)#32 + 999 x(33)#33 + 629 x(34)#34 + 985 x(35)#35
     + 527 x(36)#36 + 850 x(37)#37 + 261 x(38)#38 + 555 x(39)#39 + 681 x(40)#40
     + 832 x(41)#41 + 446 x(42)#42 + 340 x(43)#43 + 408 x(44)#44 + 184 x(45)#45
     + 932 x(46)#46 + 332 x(47)#47 + 120 x(48)#48 + 55 x(49)#49 + 538 x(50)#50
     + 191 x(51)#51 + 348 x(52)#52 + 701 x(53)#53 + 847 x(54)#54 + 714 x(55)#55
     + 209 x(56)#56 + 668 x(57)#57 + 109 x(58)#58 + 334 x(59)#59 + 981 x(60)#60
     + 750 x(61)#61 + 957 x(62)#62 + 488 x(63)#63 + 756 x(64)#64 + 27 x(65)#65
     + 773 x(66)#66 + 366 x(67)#67 + 321 x(68)#68 + 716 x(69)#69 + 149 x(70)#70
     + 474 x(71)#71 + 829 x(72)#72 + 139 x(73)#73 + 548 x(74)#74 + 756 x(75)#75
     + 209 x(76)#76 + 663 x(77)#77 + 357 x(78)#78 + 944 x(79)#79 + 50 x(80)#80
     + 881 x(81)#81 + 425 x(82)#82 + 893 x(83)#83 + 530 x(84)#84 + 640 x(85)#85
     + 835 x(86)#86 + 233 x(87)#87 + 256 x(88)#88 + 332 x(89)#89 + 774 x(90)#90
     + 965 x(91)#91 + 469 x(92)#92 + 525 x(93)#93 + 311 x(94)#94 + 564 x(95)#95
     + 670 x(96)#96 + 801 x(97)#97 + 649 x(98)#98 + 890 x(99)#99
     + 608 x(100)#100 + 983 x(101)#101 + 133 x(102)#102 + 22 x(103)#103
     + 527 x(104)#104 + 734 x(105)#105 + 6 x(106)#106 + 160 x(107)#107
     + 685 x(108)#108 + 884 x(109)#109 + 701 x(110)#110 + 641 x(111)#111
     + 898 x(112)#112 + 321 x(113)#113 + 649 x(114)#114 + 885 x(115)#115
     + 32 x(116)#116 + 928 x(117)#117 + 884 x(118)#118 + 105 x(119)#119
     + 588 x(120)#120 + 136 x(121)#121 + 958 x(122)#122 + 748 x(123)#123
     + 611 x(124)#124 + 78 x(125)#125 + 98 x(126)#126 + 112 x(127)#127
     + 226 x(128)#128 + 464 x(129)#129 + 802 x(130)#130 + 21 x(131)#131
     + 99 x(132)#132 + 394 x(133)#133 + 764 x(134)#134 + 721 x(135)#135
     + 281 x(136)#136 + 73 x(137)#137 + 290 x(138)#138 + 89 x(139)#139
     + 890 x(140)#140 + 736 x(141)#141 + 890 x(142)#142 + 150 x(143)#143
     + 264 x(144)#144 + 182 x(145)#145 + 345 x(146)#146 + 888 x(147)#147
     + 758 x(148)#148 + 780 x(149)#149 + 408 x(150)#150 + 612 x(151)#151
     + 706 x(152)#152 + 887 x(153)#153 + 500 x(154)#154 + 861 x(155)#155
     + 39 x(156)#156 + 922 x(157)#157 + 263 x(158)#158 + 843 x(159)#159
     + 407 x(160)#160 + 25 x(161)#161 + 192 x(162)#162 + 734 x(163)#163
     + 658 x(164)#164 + 869 x(165)#165 + 91 x(166)#166 + 377 x(167)#167
     + 898 x(168)#168 + 242 x(169)#169 + 680 x(170)#170 + 895 x(171)#171
     + 34 x(172)#172 + 962 x(173)#173 + 420 x(174)#174 + 327 x(175)#175
     + 50 x(176)#176 + 976 x(177)#177 + 226 x(178)#178 + 366 x(179)#179
     + 372 x(180)#180 + 196 x(181)#181 + 856 x(182)#182 + 160 x(183)#183
     + 955 x(184)#184 + 489 x(185)#185 + 193 x(186)#186 + 222 x(187)#187
     + 73 x(188)#188 + 424 x(189)#189 + 13 x(190)#190 + 991 x(191)#191
     + 341 x(192)#192 + 195 x(193)#193 + 355 x(194)#194 + 983 x(195)#195
     + 678 x(196)#196 + 721 x(197)#197 + 426 x(198)#198 + 464 x(199)#199
     + 490 x(200)#200 + 804 x(201)#201 + 874 x(202)#202 + 834 x(203)#203
     + 317 x(204)#204 + 19 x(205)#205 + 517 x(206)#206 + 83 x(207)#207
     + 770 x(208)#208 + 616 x(209)#209 + 724 x(210)#210 + 223 x(211)#211
     + 922 x(212)#212 + 961 x(213)#213 + 403 x(214)#214 + 982 x(215)#215
     + 984 x(216)#216 + 87 x(217)#217 + 173 x(218)#218 + 961 x(219)#219
     + 489 x(220)#220 + 969 x(221)#221 + 590 x(222)#222 + 682 x(223)#223
     + 388 x(224)#224 + 622 x(225)#225 + 778 x(226)#226 + 926 x(227)#227
     + 933 x(228)#228 + 205 x(229)#229 + 112 x(230)#230 + 276 x(231)#231
     + 777 x(232)#232 + 412 x(233)#233 + 982 x(234)#234 + 674 x(235)#235
     + 89 x(236)#236 + 218 x(237)#237 + 131 x(238)#238 + 996 x(239)#239
     + 703 x(240)#240 + 181 x(241)#241 + 79 x(242)#242 + 643 x(243)#243
     + 913 x(244)#244 + 874 x(245)#245 + 259 x(246)#246 + 671 x(247)#247
     + 816 x(248)#248 + 921 x(249)#249 <= 97326
 c4: 687 x(0)#0 + 484 x(1)#1 + 751 x(2)#2 + 492 x(3)#3 + 727 x(4)#4
     + 638 x(5)#5 + 53 x(6)#6 + 51 x(7)#7 + 294 x(8)#8 + 469 x(9)#9
     + 657 x(10)#10 + 201 x(11)#11 + 686 x(12)#12 + 702 x(13)#13 + 16 x(14)#14
     + 196 x(15)#15 + 692 x(16)#16 + 623 x(17)#17 + 695 x(18)#18 + 351 x(19)#19
     + 15 x(20)#20 + 696 x(21)#21 + 505 x(22)#22 + 384 x(23)#23 + 714 x(24)#24
     + 18 x(25)#25 + 72 x(26)#26 + 824 x(27)#27 + 893 x(28)#28 + 945 x(29)#29
     + 475 x(30)#30 + 702 x(31)#31 + 168 x(32)#32 + 105 x(33)#33 + 548 x(34)#34
     + 946 x(35)#35 + 659 x(36)#36 + 937 x(37)#37 + 838 x(38)#38 + 698 x(39)#39
     + 846 x(40)#40 + 490 x(41)#41 + 537 x(42)#42 + 302 x(43)#43 + 788 x(44)#44
     + 758 x(45)#45 + 533 x(46)#46 + 916 x(47)#47 + 110 x(48)#48 + 169 x(49)#49
     + 632 x(50)#50 + 299 x(51)#51 + 416 x(52)#52 + 176 x(53)#53 + 368 x(54)#54
     + 408 x(55)#55 + 398 x(56)#56 + 180 x(57)#57 + 815 x(58)#58 + 946 x(59)#59
     + 508 x(60)#60 + 117 x(61)#61 + 593 x(62)#62 + 774 x(63)#63 + 624 x(64)#64
     + 414 x(65)#65 + 719 x(66)#66 + 834 x(67)#67 + 648 x(68)#68 + 485 x(69)#69
     + 393 x(70)#70 + 409 x(71)#71 + 563 x(72)#72 + 310 x(73)#73 + 181 x(74)#74
     + 724 x(75)#75 + 713 x(76)#76 + 52 x(77)#77 + 266 x(78)#78 + 499 x(79)#79
     + 218 x(80)#80 + 240 x(81)#81 + 851 x(82)#82 + 190 x(83)#83 + 847 x(84)#84
     + 789 x(85)#85 + 324 x(86)#86 + 69 x(87)#87 + 314 x(88)#88 + 473 x(89)#89
     + 710 x(90)#90 + 929 x(91)#91 + 334 x(92)#92 + 555 x(93)#93 + 107 x(94)#94
     + 881 x(95)#95 + 14 x(96)#96 + 212 x(97)#97 + 328 x(98)#98 + 213 x(99)#99
     + 687 x(100)#100 + 312 x(101)#101 + 133 x(102)#102 + 971 x(103)#103
     + 917 x(104)#104 + 530 x(105)#105 + 957 x(106)#106 + 394 x(107)#107
     + 94 x(108)#108 + 16 x(109)#109 + 454 x(110)#110 + 809 x(111)#111
     + 113 x(112)#112 + 739 x(113)#113 + 760 x(114)#114 + 470 x(115)#115
     + 548 x(116)#116 + 477 x(117)#117 + 942 x(118)#118 + 816 x(119)#119
     + 991 x(120)#120 + 984 x(121)#121 + 318 x(122)#122 + 12 x(123)#123
     + 100 x(124)#124 + 59 x(125)#125 + 791 x(126)#126 + 241 x(127)#127
     + 107 x(128)#128 + 507 x(129)#129 + 359 x(130)#130 + 154 x(131)#131
     + 800 x(132)#132 + 43 x(133)#133 + 546 x(134)#134 + 565 x(135)#135
     + 28 x(136)#136 + 188 x(137)#137 + 82 x(138)#138 + 560 x(139)#139
     + 291 x(140)#140 + 978 x(141)#141 + 105 x(142)#142 + 343 x(143)#143
     + 306 x(144)#144 + 84 x(145)#145 + 224 x(146)#146 + 141 x(147)#147
     + 558 x(148)#148 + 545 x(149)#149 + 397 x(150)#150 + 337 x(151)#151
     + 141 x(152)#152 + 475 x(153)#153 + 653 x(154)#154 + 220 x(155)#155
     + 798 x(156)#156 + 949 x(157)#157 + 495 x(158)#158 + 163 x(159)#159
     + 855 x(160)#160 + 820 x(161)#161 + 789 x(162)#162 + 513 x(163)#163
     + 506 x(164)#164 + 662 x(165)#165 + 728 x(166)#166 + 314 x(167)#167
     + 663 x(168)#168 + 69 x(169)#169 + 67 x(170)#170 + 23 x(171)#171
     + 160 x(172)#172 + 90 x(173)#173 + 372 x(174)#174 + 764 x(175)#175
     + 422 x(176)#176 + 361 x(177)#177 + 257 x(178)#178 + 683 x(179)#179
     + 647 x(180)#180 + 889 x(181)#181 + 937 x(182)#182 + 415 x(183)#183
     + 820 x(184)#184 + 216 x(185)#185 + 117 x(186)#186 + 824 x(187)#187
     + 915 x(188)#188 + 209 x(189)#189 + 370 x(190)#190 + 665 x(191)#191
     + 322 x(192)#192 + 645 x(193)#193 + 744 x(194)#194 + 235 x(195)#195
     + 590 x(196)#196 + 977 x(197)#197 + 544 x(198)#198 + 199 x(199)#199
     + 167 x(200)#200 + 165 x(201)#201 + 40 x(202)#202 + 598 x(203)#203
     + 588 x(204)#204 + 864 x(205)#205 + 941 x(206)#206 + 441 x(207)#207
     + 733 x(208)#208 + 172 x(209)#209 + 637 x(210)#210 + 663 x(211)#211
     + 844 x(212)#212 + 534 x(213)#213 + 346 x(214)#214 + 770 x(215)#215
     + 731 x(216)#216 + 225 x(217)#217 + 101 x(218)#218 + 184 x(219)#219
     + 740 x(220)#220 + 647 x(221)#221 + 872 x(222)#222 + 163 x(223)#223
     + 219 x(224)#224 + 151 x(225)#225 + 810 x(226)#226 + 743 x(227)#227
     + 332 x(228)#228 + 461 x(229)#229 + 233 x(230)#230 + 678 x(231)#231
     + 835 x(232)#232 + 980 x(233)#233 + 353 x(234)#234 + 654 x(235)#235
     + 960 x(236)#236 + 172 x(237)#237 + 806 x(238)#238 + 837 x(239)#239
     + 87 x(240)#240 + 91 x(241)#241 + 755 x(242)#242 + 666 x(243)#243
     + 680 x(244)#244 + 326 x(245)#245 + 248 x(246)#246 + 59 x(247)#247
     + 691 x(248)#248 + 956 x(249)#249 <= 91682
 c5: 685 x(0)#0 + 213 x(1)#1 + 985 x(2)#2 + 894 x(3)#3 + 66 x(4)#4 + 7 x(5)#5
     + 371 x(6)#6 + 786 x(7)#7 + 26 x(8)#8 + 14 x(9)#9 + 275 x(10)#10
     + 336 x(11)#11 + 571 x(12)#12 + 839 x(13)#13 + 77 x(14)#14 + 458 x(15)#15
     + 582 x(16)#16 + 110 x(17)#17 + 155 x(18)#18 + 710 x(19)#19 + 334 x(20)#20
     + 657 x(21)#21 + 819 x(22)#22 + 672 x(23)#23 + 531 x(24)#24 + 595 x(25)#25
     + 481 x(26)#26 + 705 x(27)#27 + 340 x(28)#28 + 337 x(29)#29 + 932 x(30)#30
     + 843 x(31)#31 + 406 x(32)#32 + 302 x(33)#33 + 465 x(34)#34 + 16 x(35)#35
     + 550 x(36)#36 + 184 x(37)#37 + 249 x(38)#38 + 973 x(39)#39 + 352 x(40)#40
     + 111 x(41)#41 + 996 x(42)#42 + 794 x(43)#43 + 174 x(44)#44 + 937 x(45)#45
     + 643 x(46)#46 + 55 x(47)#47 + 455 x(48)#48 + 134 x(49)#49 + 87 x(50)#50
     + 533 x(51)#51 + 893 x(52)#52 + 468 x(53)#53 + 538 x(54)#54 + 673 x(55)#55
     + 501 x(56)#56 + 602 x(57)#57 + 304 x(58)#58 + 9 x(59)#59 + 388 x(60)#60
     + 525 x(61)#61 + 29 x(62)#62 + 828 x(63)#63 + 718 x(64)#64 + 932 x(65)#65
     + 190 x(66)#66 + 596 x(67)#67 + 534 x(68)#68 + 611 x(69)#69 + 439 x(70)#70
     + 578 x(71)#71 + 972 x(72)#72 + 579 x(73)#73 + 31 x(74)#74 + 781 x(75)#75
     + 426 x(76)#76 + 396 x(77)#77 + 701 x(78)#78 + 898 x(79)#79 + 157 x(80)#80
     + 215 x(81)#81 + 161 x(82)#82 + 827 x(83)#83 + 228 x(84)#84 + 6 x(85)#85
     + 571 x(86)#86 + 600 x(87)#87 + 729 x(88)#88 + 160 x(89)#89 + 701 x(90)#90
     + 629 x(91)#91 + 234 x(92)#92 + 318 x(93)#93 + 743 x(94)#94 + 64 x(95)#95
     + 767 x(96)#96 + 830 x(97)#97 + 197 x(98)#98 + 345 x(99)#99
     + 529 x(100)#100 + 843 x(101)#101 + 707 x(102)#102 + 744 x(103)#103
     + 759 x(104)#104 + 281 x(105)#105 + 484 x(106)#106 + 136 x(107)#107
     + 855 x(108)#108 + 41 x(109)#109 + 69 x(110)#110 + 397 x(111)#111
     + 95 x(112)#112 + 625 x(113)#113 + 284 x(114)#114 + 366 x(115)#115
     + 617 x(116)#116 + 944 x(117)#117 + 823 x(118)#118 + 163 x(119)#119
     + 896 x(120)#120 + 524 x(121)#121 + 255 x(122)#122 + 85 x(123)#123
     + 253 x(124)#124 + 204 x(125)#125 + 178 x(126)#126 + 144 x(127)#127
     + 456 x(128)#128 + 813 x(129)#129 + 25 x(130)#130 + 105 x(131)#131
     + 583 x(132)#132 + 669 x(133)#133 + 629 x(134)#134 + 519 x(135)#135
     + 272 x(136)#136 + 97 x(137)#137 + 882 x(138)#138 + 827 x(139)#139
     + 526 x(140)#140 + 399 x(141)#141 + 673 x(142)#142 + 399 x(143)#143
     + 829 x(144)#144 + 186 x(145)#145 + 390 x(146)#146 + 752 x(147)#147
     + 182 x(148)#148 + 585 x(149)#149 + 846 x(150)#150 + 355 x(151)#151
     + 673 x(152)#152 + 967 x(153)#153 + 279 x(154)#154 + 721 x(155)#155
     + 197 x(156)#156 + 912 x(157)#157 + 85 x(158)#158 + 474 x(159)#159
     + 305 x(160)#160 + 712 x(161)#161 + 8 x(162)#162 + 538 x(163)#163
     + 120 x(164)#164 + 443 x(165)#165 + 734 x(166)#166 + 998 x(167)#167
     + 526 x(168)#168 + 228 x(169)#169 + 858 x(170)#170 + 342 x(171)#171
     + 806 x(172)#172 + 863 x(173)#173 + 321 x(174)#174 + 31 x(175)#175
     + 143 x(176)#176 + 741 x(177)#177 + 912 x(178)#178 + 711 x(179)#179
     + 114 x(180)#180 + 706 x(181)#181 + 608 x(182)#182 + 304 x(183)#183
     + 420 x(184)#184 + 312 x(185)#185 + 885 x(186)#186 + 544 x(187)#187
     + 123 x(188)#188 + 569 x(189)#189 + 329 x(190)#190 + 831 x(191)#191
     + 58 x(192)#192 + 376 x(193)#193 + 907 x(194)#194 + 670 x(195)#195
     + 869 x(196)#196 + 525 x(197)#197 + 894 x(198)#198 + 719 x(199)#199
     + 460 x(200)#200 + 889 x(201)#201 + 235 x(202)#202 + 368 x(203)#203
     + 671 x(204)#204 + 760 x(205)#205 + 471 x(206)#206 + 327 x(207)#207
     + 509 x(208)#208 + 911 x(209)#209 + 778 x(210)#210 + 333 x(211)#211
     + 909 x(212)#212 + 410 x(213)#213 + 652 x(214)#214 + 954 x(215)#215
     + 185 x(216)#216 + 703 x(217)#217 + 912 x(218)#218 + 84 x(219)#219
     + 854 x(220)#220 + 704 x(221)#221 + 422 x(222)#222 + 807 x(223)#223
     + 684 x(224)#224 + 971 x(225)#225 + 817 x(226)#226 + 347 x(227)#227
     + 93 x(228)#228 + 370 x(229)#229 + 861 x(230)#230 + 192 x(231)#231
     + 231 x(232)#232 + 81 x(233)#233 + 102 x(234)#234 + 883 x(235)#235
     + 633 x(236)#236 + 354 x(237)#237 + 921 x(238)#238 + 597 x(239)#239
     + 88 x(240)#240 + 411 x(241)#241 + 179 x(242)#242 + 760 x(243)#243
     + 135 x(244)#244 + 42 x(245)#245 + 939 x(246)#246 + 689 x(247)#247
     + 240 x(248)#248 + 533 x(249)#249 <= 92712
Bounds
 0 <= x(0)#0 <= 1
 0 <= x(1)#1 <= 1
 0 <= x(2)#2 <= 1
 0 <= x(3)#3 <= 1
 0 <= x(4)#4 <= 1
 0 <= x(5)#5 <= 1
 0 <= x(6)#6 <= 1
 0 <= x(7)#7 <= 1
 0 <= x(8)#8 <= 1
 0 <= x(9)#9 <= 1
 0 <= x(10)#10 <= 1
 0 <= x(11)#11 <= 1
 0 <= x(12)#12 <= 1
 0 <= x(13)#13 <= 1
 0 <= x(14)#14 <= 1
 0 <= x(15)#15 <= 1
 0 <= x(16)#16 <= 1
 0 <= x(17)#17 <= 1
 0 <= x(18)#18 <= 1
 0 <= x(19)#19 <= 1
 0 <= x(20)#20 <= 1
 0 <= x(21)#21 <= 1
 0 <= x(22)#22 <= 1
 0 <= x(23)#23 <= 1
 0 <= x(24)#24 <= 1
 0 <= x(25)#25 <= 1
 0 <= x(26)#26 <= 1
 0 <= x(27)#27 <= 1
 0 <= x(28)#28 <= 1
 0 <= x(29)#29 <= 1
 0 <= x(30)#30 <= 1
 0 <= x(31)#31 <= 1
 0 <= x(32)#32 <= 1
 0 <= x(33)#33 <= 1
 0 <= x(34)#34 <= 1
 0 <= x(35)#35 <= 1
 0 <= x(36)#36 <= 1
 0 <= x(37)#37 <= 1
 0 <= x(38)#38 <= 1
 0 <= x(39)#39 <= 1
 0 <= x(40)#40 <= 1
 0 <= x(41)#41 <= 1
 0 <= x(42)#42 <= 1
 0 <= x(43)#43 <= 1
 0 <= x(44)#44 <= 1
 0 <= x(45)#45 <= 1
 0 <= x(46)#46 <= 1
 0 <= x(47)#47 <= 1
 0 <= x(48)#48 <= 1
 0 <= x(49)#49 <= 1
 0 <= x(50)#50 <= 1
 0 <= x(51)#51 <= 1
 0 <= x(52)#52 <= 1
 0 <= x(53)#53 <= 1
 0 <= x(54)#54 <= 1
 0 <= x(55)#55 <= 1
 0 <= x(56)#56 <= 1
 0 <= x(57)#57 <= 1
 0 <= x(58)#58 <= 1
 0 <= x(59)#59 <= 1
 0 <= x(60)#60 <= 1
 0 <= x(61)#61 <= 1
 0 <= x(62)#62 <= 1
 0 <= x(63)#63 <= 1
 0 <= x(64)#64 <= 1
 0 <= x(65)#65 <= 1
 0 <= x(66)#66 <= 1
 0 <= x(67)#67 <= 1
 0 <= x(68)#68 <= 1
 0 <= x(69)#69 <= 1
 0 <= x(70)#70 <= 1
 0 <= x(71)#71 <= 1
 0 <= x(72)#72 <= 1
 0 <= x(73)#73 <= 1
 0 <= x(74)#74 <= 1
 0 <= x(75)#75 <= 1
 0 <= x(76)#76 <= 1
 0 <= x(77)#77 <= 1
 0 <= x(78)#78 <= 1
 0 <= x(79)#79 <= 1
 0 <= x(80)#80 <= 1
 0 <= x(81)#81 <= 1
 0 <= x(82)#82 <= 1
 0 <= x(83)#83 <= 1
 0 <= x(84)#84 <= 1
 0 <= x(85)#85 <= 1
 0 <= x(86)#86 <= 1
 0 <= x(87)#87 <= 1
 0 <= x(88)#88 <= 1
 0 <= x(89)#89 <= 1
 0 <= x(90)#90 <= 1
 0 <= x(91)#91 <= 1
 0 <= x(92)#92 <= 1
 0 <= x(93)#93 <= 1
 0 <= x(94)#94 <= 1
 0 <= x(95)#95 <= 1
 0 <= x(96)#96 <= 1
 0 <= x(97)#97 <= 1
 0 <= x(98)#98 <= 1
 0 <= x(99)#99 <= 1
 0 <= x(100)#100 <= 1
 0 <= x(101)#101 <= 1
 0 <= x(102)#102 <= 1
 0 <= x(103)#103 <= 1
 0 <= x(104)#104 <= 1
 0 <= x(105)#105 <= 1
 0 <= x(106)#106 <= 1
 0 <= x(107)#107 <= 1
 0 <= x(108)#108 <= 1
 0 <= x(109)#109 <= 1
 0 <= x(110)#110 <= 1
 0 <= x(111)#111 <= 1
 0 <= x(112)#112 <= 1
 0 <= x(113)#113 <= 1
 0 <= x(114)#114 <= 1
 0 <= x(115)#115 <= 1
 0 <= x(116)#116 <= 1
 0 <= x(117)#117 <= 1
 0 <= x(118)#118 <= 1
 0 <= x(119)#119 <= 1
 0 <= x(120)#120 <= 1
 0 <= x(121)#121 <= 1
 0 <= x(122)#122 <= 1
 0 <= x(123)#123 <= 1
 0 <= x(124)#124 <= 1
 0 <= x(125)#125 <= 1
 0 <= x(126)#126 <= 1
 0 <= x(127)#127 <= 1
 0 <= x(128)#128 <= 1
 0 <= x(129)#129 <= 1
 0 <= x(130)#130 <= 1
 0 <= x(131)#131 <= 1
 0 <= x(132)#132 <= 1
 0 <= x(133)#133 <= 1
 0 <= x(134)#134 <= 1
 0 <= x(135)#135 <= 1
 0 <= x(136)#136 <= 1
 0 <= x(137)#137 <= 1
 0 <= x(138)#138 <= 1
 0 <= x(139)#139 <= 1
 0 <= x(140)#140 <= 1
 0 <= x(141)#141 <= 1
 0 <= x(142)#142 <= 1
 0 <= x(143)#143 <= 1
 0 <= x(144)#144 <= 1
 0 <= x(145)#145 <= 1
 0 <= x(146)#146 <= 1
 0 <= x(147)#147 <= 1
 0 <= x(148)#148 <= 1
 0 <= x(149)#149 <= 1
 0 <= x(150)#150 <= 1
 0 <= x(151)#151 <= 1
 0 <= x(152)#152 <= 1
 0 <= x(153)#153 <= 1
 0 <= x(154)#154 <= 1
 0 <= x(155)#155 <= 1
 0 <= x(156)#156 <= 1
 0 <= x(157)#157 <= 1
 0 <= x(158)#158 <= 1
 0 <= x(159)#159 <= 1
 0 <= x(160)#160 <= 1
 0 <= x(161)#161 <= 1
 0 <= x(162)#162 <= 1
 0 <= x(163)#163 <= 1
 0 <= x(164)#164 <= 1
 0 <= x(165)#165 <= 1
 0 <= x(166)#166 <= 1
 0 <= x(167)#167 <= 1
 0 <= x(168)#168 <= 1
 0 <= x(169)#169 <= 1
 0 <= x(170)#170 <= 1
 0 <= x(171)#171 <= 1
 0 <= x(172)#172 <= 1
 0 <= x(173)#173 <= 1
 0 <= x(174)#174 <= 1
 0 <= x(175)#175 <= 1
 0 <= x(176)#176 <= 1
 0 <= x(177)#177 <= 1
 0 <= x(178)#178 <= 1
 0 <= x(179)#179 <= 1
 0 <= x(180)#180 <= 1
 0 <= x(181)#181 <= 1
 0 <= x(182)#182 <= 1
 0 <= x(183)#183 <= 1
 0 <= x(184)#184 <= 1
 0 <= x(185)#185 <= 1
 0 <= x(186)#186 <= 1
 0 <= x(187)#187 <= 1
 0 <= x(188)#188 <= 1
 0 <= x(189)#189 <= 1
 0 <= x(190)#190 <= 1
 0 <= x(191)#191 <= 1
 0 <= x(192)#192 <= 1
 0 <= x(193)#193 <= 1
 0 <= x(194)#194 <= 1
 0 <= x(195)#195 <= 1
 0 <= x(196)#196 <= 1
 0 <= x(197)#197 <= 1
 0 <= x(198)#198 <= 1
 0 <= x(199)#199 <= 1
 0 <= x(200)#200 <= 1
 0 <= x(201)#201 <= 1
 0 <= x(202)#202 <= 1
 0 <= x(203)#203 <= 1
 0 <= x(204)#204 <= 1
 0 <= x(205)#205 <= 1
 0 <= x(206)#206 <= 1
 0 <= x(207)#207 <= 1
 0 <= x(208)#208 <= 1
 0 <= x(209)#209 <= 1
 0 <= x(210)#210 <= 1
 0 <= x(211)#211 <= 1
 0 <= x(212)#212 <= 1
 0 <= x(213)#213 <= 1
 0 <= x(214)#214 <= 1
 0 <= x(215)#215 <= 1
 0 <= x(216)#216 <= 1
 0 <= x(217)#217 <= 1
 0 <= x(218)#218 <= 1
 0 <= x(219)#219 <= 1
 0 <= x(220)#220 <= 1
 0 <= x(221)#221 <= 1
 0 <= x(222)#222 <= 1
 0 <= x(223)#223 <= 1
 0 <= x(224)#224 <= 1
 0 <= x(225)#225 <= 1
 0 <= x(226)#226 <= 1
 0 <= x(227)#227 <= 1
 0 <= x(228)#228 <= 1
 0 <= x(229)#229 <= 1
 0 <= x(230)#230 <= 1
 0 <= x(231)#231 <= 1
 0 <= x(232)#232 <= 1
 0 <= x(233)#233 <= 1
 0 <= x(234)#234 <= 1
 0 <= x(235)#235 <= 1
 0 <= x(236)#236 <= 1
 0 <= x(237)#237 <= 1
 0 <= x(238)#238 <= 1
 0 <= x(239)#239 <= 1
 0 <= x(240)#240 <= 1
 0 <= x(241)#241 <= 1
 0 <= x(242)#242 <= 1
 0 <= x(243)#243 <= 1
 0 <= x(244)#244 <= 1
 0 <= x(245)#245 <= 1
 0 <= x(246)#246 <= 1
 0 <= x(247)#247 <= 1
 0 <= x(248)#248 <= 1
 0 <= x(249)#249 <= 1
Generals
 x(0)#0  x(1)#1  x(2)#2  x(3)#3  x(4)#4  x(5)#5  x(6)#6  x(7)#7  x(8)#8 
 x(9)#9  x(10)#10  x(11)#11  x(12)#12  x(13)#13  x(14)#14  x(15)#15  x(16)#16 
 x(17)#17  x(18)#18  x(19)#19  x(20)#20  x(21)#21  x(22)#22  x(23)#23 
 x(24)#24  x(25)#25  x(26)#26  x(27)#27  x(28)#28  x(29)#29  x(30)#30 
 x(31)#31  x(32)#32  x(33)#33  x(34)#34  x(35)#35  x(36)#36  x(37)#37 
 x(38)#38  x(39)#39  x(40)#40  x(41)#41  x(42)#42  x(43)#43  x(44)#44 
 x(45)#45  x(46)#46  x(47)#47  x(48)#48  x(49)#49  x(50)#50  x(51)#51 
 x(52)#52  x(53)#53  x(54)#54  x(55)#55  x(56)#56  x(57)#57  x(58)#58 
 x(59)#59  x(60)#60  x(61)#61  x(62)#62  x(63)#63  x(64)#64  x(65)#65 
 x(66)#66  x(67)#67  x(68)#68  x(69)#69  x(70)#70  x(71)#71  x(72)#72 
 x(73)#73  x(74)#74  x(75)#75  x(76)#76  x(77)#77  x(78)#78  x(79)#79 
 x(80)#80  x(81)#81  x(82)#82  x(83)#83  x(84)#84  x(85)#85  x(86)#86 
 x(87)#87  x(88)#88  x(89)#89  x(90)#90  x(91)#91  x(92)#92  x(93)#93 
 x(94)#94  x(95)#95  x(96)#96  x(97)#97  x(98)#98  x(99)#99  x(100)#100 
 x(101)#101  x(102)#102  x(103)#103  x(104)#104  x(105)#105  x(106)#106 
 x(107)#107  x(108)#108  x(109)#109  x(110)#110  x(111)#111  x(112)#112 
 x(113)#113  x(114)#114  x(115)#115  x(116)#116  x(117)#117  x(118)#118 
 x(119)#119  x(120)#120  x(121)#121  x(122)#122  x(123)#123  x(124)#124 
 x(125)#125  x(126)#126  x(127)#127  x(128)#128  x(129)#129  x(130)#130 
 x(131)#131  x(132)#132  x(133)#133  x(134)#134  x(135)#135  x(136)#136 
 x(137)#137  x(138)#138  x(139)#139  x(140)#140  x(141)#141  x(142)#142 
 x(143)#143  x(144)#144  x(145)#145  x(146)#146  x(147)#147  x(148)#148 
 x(149)#149  x(150)#150  x(151)#151  x(152)#152  x(153)#153  x(154)#154 
 x(155)#155  x(156)#156  x(157)#157  x(158)#158  x(159)#159  x(160)#160 
 x(161)#161  x(162)#162  x(163)#163  x(164)#164  x(165)#165  x(166)#166 
 x(167)#167  x(168)#168  x(169)#169  x(170)#170  x(171)#171  x(172)#172 
 x(173)#173  x(174)#174  x(175)#175  x(176)#176  x(177)#177  x(178)#178 
 x(179)#179  x(180)#180  x(181)#181  x(182)#182  x(183)#183  x(184)#184 
 x(185)#185  x(186)#186  x(187)#187  x(188)#188  x(189)#189  x(190)#190 
 x(191)#191  x(192)#192  x(193)#193  x(194)#194  x(195)#195  x(196)#196 
 x(197)#197  x(198)#198  x(199)#199  x(200)#200  x(201)#201  x(202)#202 
 x(203)#203  x(204)#204  x(205)#205  x(206)#206  x(207)#207  x(208)#208 
 x(209)#209  x(210)#210  x(211)#211  x(212)#212  x(213)#213  x(214)#214 
 x(215)#215  x(216)#216  x(217)#217  x(218)#218  x(219)#219  x(220)#220 
 x(221)#221  x(222)#222  x(223)#223  x(224)#224  x(225)#225  x(226)#226 
 x(227)#227  x(228)#228  x(229)#229  x(230)#230  x(231)#231  x(232)#232 
 x(233)#233  x(234)#234  x(235)#235  x(236)#236  x(237)#237  x(238)#238 
 x(239)#239  x(240)#240  x(241)#241  x(242)#242  x(243)#243  x(244)#244 
 x(245)#245  x(246)#246  x(247)#247  x(248)#248  x(249)#249 
End
